p cnf 300 1436
1 2 0
-1 -2 0
31 32 0
-31 -32 0
61 62 0
-61 -62 0
91 92 0
-91 -92 0
121 122 0
-121 -122 0
151 152 0
-151 -152 0
181 182 0
-181 -182 0
211 212 0
-211 -212 0
241 242 0
-241 -242 0
271 272 0
-271 -272 0
3 4 0
-3 -4 0
33 34 0
-33 -34 0
63 64 0
-63 -64 0
93 94 0
-93 -94 0
123 124 0
-123 -124 0
153 154 0
-153 -154 0
183 184 0
-183 -184 0
213 214 0
-213 -214 0
243 244 0
-243 -244 0
273 274 0
-273 -274 0
5 6 0
-5 -6 0
35 36 0
-35 -36 0
65 66 0
-65 -66 0
95 96 0
-95 -96 0
125 126 0
-125 -126 0
155 156 0
-155 -156 0
185 186 0
-185 -186 0
215 216 0
-215 -216 0
245 246 0
-245 -246 0
275 276 0
-275 -276 0
7 8 0
-7 -8 0
37 38 0
-37 -38 0
67 68 0
-67 -68 0
97 98 0
-97 -98 0
127 128 0
-127 -128 0
157 158 0
-157 -158 0
187 188 0
-187 -188 0
217 218 0
-217 -218 0
247 248 0
-247 -248 0
277 278 0
-277 -278 0
9 10 0
-9 -10 0
39 40 0
-39 -40 0
69 70 0
-69 -70 0
99 100 0
-99 -100 0
129 130 0
-129 -130 0
159 160 0
-159 -160 0
189 190 0
-189 -190 0
219 220 0
-219 -220 0
249 250 0
-249 -250 0
279 280 0
-279 -280 0
11 12 0
-11 -12 0
41 42 0
-41 -42 0
71 72 0
-71 -72 0
101 102 0
-101 -102 0
131 132 0
-131 -132 0
161 162 0
-161 -162 0
191 192 0
-191 -192 0
221 222 0
-221 -222 0
251 252 0
-251 -252 0
281 282 0
-281 -282 0
13 14 0
-13 -14 0
43 44 0
-43 -44 0
73 74 0
-73 -74 0
103 104 0
-103 -104 0
133 134 0
-133 -134 0
163 164 0
-163 -164 0
193 194 0
-193 -194 0
223 224 0
-223 -224 0
253 254 0
-253 -254 0
283 284 0
-283 -284 0
15 16 0
-15 -16 0
45 46 0
-45 -46 0
75 76 0
-75 -76 0
105 106 0
-105 -106 0
135 136 0
-135 -136 0
165 166 0
-165 -166 0
195 196 0
-195 -196 0
225 226 0
-225 -226 0
255 256 0
-255 -256 0
285 286 0
-285 -286 0
17 18 0
-17 -18 0
47 48 0
-47 -48 0
77 78 0
-77 -78 0
107 108 0
-107 -108 0
137 138 0
-137 -138 0
167 168 0
-167 -168 0
197 198 0
-197 -198 0
227 228 0
-227 -228 0
257 258 0
-257 -258 0
287 288 0
-287 -288 0
19 20 0
-19 -20 0
49 50 0
-49 -50 0
79 80 0
-79 -80 0
109 110 0
-109 -110 0
139 140 0
-139 -140 0
169 170 0
-169 -170 0
199 200 0
-199 -200 0
229 230 0
-229 -230 0
259 260 0
-259 -260 0
289 290 0
-289 -290 0
21 22 0
-21 -22 0
51 52 0
-51 -52 0
81 82 0
-81 -82 0
111 112 0
-111 -112 0
141 142 0
-141 -142 0
171 172 0
-171 -172 0
201 202 0
-201 -202 0
231 232 0
-231 -232 0
261 262 0
-261 -262 0
291 292 0
-291 -292 0
23 24 0
-23 -24 0
53 54 0
-53 -54 0
83 84 0
-83 -84 0
113 114 0
-113 -114 0
143 144 0
-143 -144 0
173 174 0
-173 -174 0
203 204 0
-203 -204 0
233 234 0
-233 -234 0
263 264 0
-263 -264 0
293 294 0
-293 -294 0
25 26 0
-25 -26 0
55 56 0
-55 -56 0
85 86 0
-85 -86 0
115 116 0
-115 -116 0
145 146 0
-145 -146 0
175 176 0
-175 -176 0
205 206 0
-205 -206 0
235 236 0
-235 -236 0
265 266 0
-265 -266 0
295 296 0
-295 -296 0
27 28 0
-27 -28 0
57 58 0
-57 -58 0
87 88 0
-87 -88 0
117 118 0
-117 -118 0
147 148 0
-147 -148 0
177 178 0
-177 -178 0
207 208 0
-207 -208 0
237 238 0
-237 -238 0
267 268 0
-267 -268 0
297 298 0
-297 -298 0
29 30 0
-29 -30 0
59 60 0
-59 -60 0
89 90 0
-89 -90 0
119 120 0
-119 -120 0
149 150 0
-149 -150 0
179 180 0
-179 -180 0
209 210 0
-209 -210 0
239 240 0
-239 -240 0
269 270 0
-269 -270 0
299 300 0
-299 -300 0
-1 -31 -271 4 0
-1 -32 -271 4 0
-1 -31 -272 4 0
-1 -32 -272 4 0
-2 -31 -271 4 0
-2 -32 -271 4 0
-2 -31 -272 4 0
-2 -32 -272 3 0
-31 -1 -61 34 0
-31 -2 -61 34 0
-31 -1 -62 34 0
-31 -2 -62 34 0
-32 -1 -61 34 0
-32 -2 -61 34 0
-32 -1 -62 34 0
-32 -2 -62 33 0
-61 -31 -91 64 0
-61 -32 -91 64 0
-61 -31 -92 64 0
-61 -32 -92 64 0
-62 -31 -91 64 0
-62 -32 -91 64 0
-62 -31 -92 64 0
-62 -32 -92 63 0
-91 -61 -121 94 0
-91 -62 -121 94 0
-91 -61 -122 94 0
-91 -62 -122 94 0
-92 -61 -121 94 0
-92 -62 -121 94 0
-92 -61 -122 94 0
-92 -62 -122 93 0
-121 -91 -151 124 0
-121 -92 -151 124 0
-121 -91 -152 124 0
-121 -92 -152 124 0
-122 -91 -151 124 0
-122 -92 -151 124 0
-122 -91 -152 124 0
-122 -92 -152 123 0
-151 -121 -181 154 0
-151 -122 -181 154 0
-151 -121 -182 154 0
-151 -122 -182 154 0
-152 -121 -181 154 0
-152 -122 -181 154 0
-152 -121 -182 154 0
-152 -122 -182 153 0
-181 -151 -211 184 0
-181 -152 -211 184 0
-181 -151 -212 184 0
-181 -152 -212 184 0
-182 -151 -211 184 0
-182 -152 -211 184 0
-182 -151 -212 184 0
-182 -152 -212 183 0
-211 -181 -241 214 0
-211 -182 -241 214 0
-211 -181 -242 214 0
-211 -182 -242 214 0
-212 -181 -241 214 0
-212 -182 -241 214 0
-212 -181 -242 214 0
-212 -182 -242 213 0
-241 -211 -271 244 0
-241 -212 -271 244 0
-241 -211 -272 244 0
-241 -212 -272 244 0
-242 -211 -271 244 0
-242 -212 -271 244 0
-242 -211 -272 244 0
-242 -212 -272 243 0
-271 -1 -241 274 0
-271 -2 -241 274 0
-271 -1 -242 274 0
-271 -2 -242 274 0
-272 -1 -241 274 0
-272 -2 -241 274 0
-272 -1 -242 274 0
-272 -2 -242 273 0
-3 -33 -273 6 0
-3 -34 -273 6 0
-3 -33 -274 6 0
-3 -34 -274 6 0
-4 -33 -273 6 0
-4 -34 -273 6 0
-4 -33 -274 6 0
-4 -34 -274 5 0
-33 -3 -63 36 0
-33 -4 -63 36 0
-33 -3 -64 36 0
-33 -4 -64 36 0
-34 -3 -63 36 0
-34 -4 -63 36 0
-34 -3 -64 36 0
-34 -4 -64 35 0
-63 -33 -93 66 0
-63 -34 -93 66 0
-63 -33 -94 66 0
-63 -34 -94 66 0
-64 -33 -93 66 0
-64 -34 -93 66 0
-64 -33 -94 66 0
-64 -34 -94 65 0
-93 -63 -123 96 0
-93 -64 -123 96 0
-93 -63 -124 96 0
-93 -64 -124 96 0
-94 -63 -123 96 0
-94 -64 -123 96 0
-94 -63 -124 96 0
-94 -64 -124 95 0
-123 -93 -153 126 0
-123 -94 -153 126 0
-123 -93 -154 126 0
-123 -94 -154 126 0
-124 -93 -153 126 0
-124 -94 -153 126 0
-124 -93 -154 126 0
-124 -94 -154 125 0
-153 -123 -183 156 0
-153 -124 -183 156 0
-153 -123 -184 156 0
-153 -124 -184 156 0
-154 -123 -183 156 0
-154 -124 -183 156 0
-154 -123 -184 156 0
-154 -124 -184 155 0
-183 -153 -213 186 0
-183 -154 -213 186 0
-183 -153 -214 186 0
-183 -154 -214 186 0
-184 -153 -213 186 0
-184 -154 -213 186 0
-184 -153 -214 186 0
-184 -154 -214 185 0
-213 -183 -243 216 0
-213 -184 -243 216 0
-213 -183 -244 216 0
-213 -184 -244 216 0
-214 -183 -243 216 0
-214 -184 -243 216 0
-214 -183 -244 216 0
-214 -184 -244 215 0
-243 -213 -273 246 0
-243 -214 -273 246 0
-243 -213 -274 246 0
-243 -214 -274 246 0
-244 -213 -273 246 0
-244 -214 -273 246 0
-244 -213 -274 246 0
-244 -214 -274 245 0
-273 -3 -243 276 0
-273 -4 -243 276 0
-273 -3 -244 276 0
-273 -4 -244 276 0
-274 -3 -243 276 0
-274 -4 -243 276 0
-274 -3 -244 276 0
-274 -4 -244 275 0
-5 -35 -275 8 0
-5 -36 -275 8 0
-5 -35 -276 8 0
-5 -36 -276 8 0
-6 -35 -275 8 0
-6 -36 -275 8 0
-6 -35 -276 8 0
-6 -36 -276 7 0
-35 -5 -65 38 0
-35 -6 -65 38 0
-35 -5 -66 38 0
-35 -6 -66 38 0
-36 -5 -65 38 0
-36 -6 -65 38 0
-36 -5 -66 38 0
-36 -6 -66 37 0
-65 -35 -95 68 0
-65 -36 -95 68 0
-65 -35 -96 68 0
-65 -36 -96 68 0
-66 -35 -95 68 0
-66 -36 -95 68 0
-66 -35 -96 68 0
-66 -36 -96 67 0
-95 -65 -125 98 0
-95 -66 -125 98 0
-95 -65 -126 98 0
-95 -66 -126 98 0
-96 -65 -125 98 0
-96 -66 -125 98 0
-96 -65 -126 98 0
-96 -66 -126 97 0
-125 -95 -155 128 0
-125 -96 -155 128 0
-125 -95 -156 128 0
-125 -96 -156 128 0
-126 -95 -155 128 0
-126 -96 -155 128 0
-126 -95 -156 128 0
-126 -96 -156 127 0
-155 -125 -185 158 0
-155 -126 -185 158 0
-155 -125 -186 158 0
-155 -126 -186 158 0
-156 -125 -185 158 0
-156 -126 -185 158 0
-156 -125 -186 158 0
-156 -126 -186 157 0
-185 -155 -215 188 0
-185 -156 -215 188 0
-185 -155 -216 188 0
-185 -156 -216 188 0
-186 -155 -215 188 0
-186 -156 -215 188 0
-186 -155 -216 188 0
-186 -156 -216 187 0
-215 -185 -245 218 0
-215 -186 -245 218 0
-215 -185 -246 218 0
-215 -186 -246 218 0
-216 -185 -245 218 0
-216 -186 -245 218 0
-216 -185 -246 218 0
-216 -186 -246 217 0
-245 -215 -275 248 0
-245 -216 -275 248 0
-245 -215 -276 248 0
-245 -216 -276 248 0
-246 -215 -275 248 0
-246 -216 -275 248 0
-246 -215 -276 248 0
-246 -216 -276 247 0
-275 -5 -245 278 0
-275 -6 -245 278 0
-275 -5 -246 278 0
-275 -6 -246 278 0
-276 -5 -245 278 0
-276 -6 -245 278 0
-276 -5 -246 278 0
-276 -6 -246 277 0
-7 -37 -277 10 0
-7 -38 -277 10 0
-7 -37 -278 10 0
-7 -38 -278 10 0
-8 -37 -277 10 0
-8 -38 -277 10 0
-8 -37 -278 10 0
-8 -38 -278 9 0
-37 -7 -67 40 0
-37 -8 -67 40 0
-37 -7 -68 40 0
-37 -8 -68 40 0
-38 -7 -67 40 0
-38 -8 -67 40 0
-38 -7 -68 40 0
-38 -8 -68 39 0
-67 -37 -97 70 0
-67 -38 -97 70 0
-67 -37 -98 70 0
-67 -38 -98 70 0
-68 -37 -97 70 0
-68 -38 -97 70 0
-68 -37 -98 70 0
-68 -38 -98 69 0
-97 -67 -127 100 0
-97 -68 -127 100 0
-97 -67 -128 100 0
-97 -68 -128 100 0
-98 -67 -127 100 0
-98 -68 -127 100 0
-98 -67 -128 100 0
-98 -68 -128 99 0
-127 -97 -157 130 0
-127 -98 -157 130 0
-127 -97 -158 130 0
-127 -98 -158 130 0
-128 -97 -157 130 0
-128 -98 -157 130 0
-128 -97 -158 130 0
-128 -98 -158 129 0
-157 -127 -187 160 0
-157 -128 -187 160 0
-157 -127 -188 160 0
-157 -128 -188 160 0
-158 -127 -187 160 0
-158 -128 -187 160 0
-158 -127 -188 160 0
-158 -128 -188 159 0
-187 -157 -217 190 0
-187 -158 -217 190 0
-187 -157 -218 190 0
-187 -158 -218 190 0
-188 -157 -217 190 0
-188 -158 -217 190 0
-188 -157 -218 190 0
-188 -158 -218 189 0
-217 -187 -247 220 0
-217 -188 -247 220 0
-217 -187 -248 220 0
-217 -188 -248 220 0
-218 -187 -247 220 0
-218 -188 -247 220 0
-218 -187 -248 220 0
-218 -188 -248 219 0
-247 -217 -277 250 0
-247 -218 -277 250 0
-247 -217 -278 250 0
-247 -218 -278 250 0
-248 -217 -277 250 0
-248 -218 -277 250 0
-248 -217 -278 250 0
-248 -218 -278 249 0
-277 -7 -247 280 0
-277 -8 -247 280 0
-277 -7 -248 280 0
-277 -8 -248 280 0
-278 -7 -247 280 0
-278 -8 -247 280 0
-278 -7 -248 280 0
-278 -8 -248 279 0
-9 -39 -279 12 0
-9 -40 -279 12 0
-9 -39 -280 12 0
-9 -40 -280 12 0
-10 -39 -279 12 0
-10 -40 -279 12 0
-10 -39 -280 12 0
-10 -40 -280 11 0
-39 -9 -69 42 0
-39 -10 -69 42 0
-39 -9 -70 42 0
-39 -10 -70 42 0
-40 -9 -69 42 0
-40 -10 -69 42 0
-40 -9 -70 42 0
-40 -10 -70 41 0
-69 -39 -99 72 0
-69 -40 -99 72 0
-69 -39 -100 72 0
-69 -40 -100 72 0
-70 -39 -99 72 0
-70 -40 -99 72 0
-70 -39 -100 72 0
-70 -40 -100 71 0
-99 -69 -129 102 0
-99 -70 -129 102 0
-99 -69 -130 102 0
-99 -70 -130 102 0
-100 -69 -129 102 0
-100 -70 -129 102 0
-100 -69 -130 102 0
-100 -70 -130 101 0
-129 -99 -159 132 0
-129 -100 -159 132 0
-129 -99 -160 132 0
-129 -100 -160 132 0
-130 -99 -159 132 0
-130 -100 -159 132 0
-130 -99 -160 132 0
-130 -100 -160 131 0
-159 -129 -189 162 0
-159 -130 -189 162 0
-159 -129 -190 162 0
-159 -130 -190 162 0
-160 -129 -189 162 0
-160 -130 -189 162 0
-160 -129 -190 162 0
-160 -130 -190 161 0
-189 -159 -219 192 0
-189 -160 -219 192 0
-189 -159 -220 192 0
-189 -160 -220 192 0
-190 -159 -219 192 0
-190 -160 -219 192 0
-190 -159 -220 192 0
-190 -160 -220 191 0
-219 -189 -249 222 0
-219 -190 -249 222 0
-219 -189 -250 222 0
-219 -190 -250 222 0
-220 -189 -249 222 0
-220 -190 -249 222 0
-220 -189 -250 222 0
-220 -190 -250 221 0
-249 -219 -279 252 0
-249 -220 -279 252 0
-249 -219 -280 252 0
-249 -220 -280 252 0
-250 -219 -279 252 0
-250 -220 -279 252 0
-250 -219 -280 252 0
-250 -220 -280 251 0
-279 -9 -249 282 0
-279 -10 -249 282 0
-279 -9 -250 282 0
-279 -10 -250 282 0
-280 -9 -249 282 0
-280 -10 -249 282 0
-280 -9 -250 282 0
-280 -10 -250 281 0
-11 -41 -281 14 0
-11 -42 -281 14 0
-11 -41 -282 14 0
-11 -42 -282 14 0
-12 -41 -281 14 0
-12 -42 -281 14 0
-12 -41 -282 14 0
-12 -42 -282 13 0
-41 -11 -71 44 0
-41 -12 -71 44 0
-41 -11 -72 44 0
-41 -12 -72 44 0
-42 -11 -71 44 0
-42 -12 -71 44 0
-42 -11 -72 44 0
-42 -12 -72 43 0
-71 -41 -101 74 0
-71 -42 -101 74 0
-71 -41 -102 74 0
-71 -42 -102 74 0
-72 -41 -101 74 0
-72 -42 -101 74 0
-72 -41 -102 74 0
-72 -42 -102 73 0
-101 -71 -131 104 0
-101 -72 -131 104 0
-101 -71 -132 104 0
-101 -72 -132 104 0
-102 -71 -131 104 0
-102 -72 -131 104 0
-102 -71 -132 104 0
-102 -72 -132 103 0
-131 -101 -161 134 0
-131 -102 -161 134 0
-131 -101 -162 134 0
-131 -102 -162 134 0
-132 -101 -161 134 0
-132 -102 -161 134 0
-132 -101 -162 134 0
-132 -102 -162 133 0
-161 -131 -191 164 0
-161 -132 -191 164 0
-161 -131 -192 164 0
-161 -132 -192 164 0
-162 -131 -191 164 0
-162 -132 -191 164 0
-162 -131 -192 164 0
-162 -132 -192 163 0
-191 -161 -221 194 0
-191 -162 -221 194 0
-191 -161 -222 194 0
-191 -162 -222 194 0
-192 -161 -221 194 0
-192 -162 -221 194 0
-192 -161 -222 194 0
-192 -162 -222 193 0
-221 -191 -251 224 0
-221 -192 -251 224 0
-221 -191 -252 224 0
-221 -192 -252 224 0
-222 -191 -251 224 0
-222 -192 -251 224 0
-222 -191 -252 224 0
-222 -192 -252 223 0
-251 -221 -281 254 0
-251 -222 -281 254 0
-251 -221 -282 254 0
-251 -222 -282 254 0
-252 -221 -281 254 0
-252 -222 -281 254 0
-252 -221 -282 254 0
-252 -222 -282 253 0
-281 -11 -251 284 0
-281 -12 -251 284 0
-281 -11 -252 284 0
-281 -12 -252 284 0
-282 -11 -251 284 0
-282 -12 -251 284 0
-282 -11 -252 284 0
-282 -12 -252 283 0
-13 -43 -283 16 0
-13 -44 -283 16 0
-13 -43 -284 16 0
-13 -44 -284 16 0
-14 -43 -283 16 0
-14 -44 -283 16 0
-14 -43 -284 16 0
-14 -44 -284 15 0
-43 -13 -73 46 0
-43 -14 -73 46 0
-43 -13 -74 46 0
-43 -14 -74 46 0
-44 -13 -73 46 0
-44 -14 -73 46 0
-44 -13 -74 46 0
-44 -14 -74 45 0
-73 -43 -103 76 0
-73 -44 -103 76 0
-73 -43 -104 76 0
-73 -44 -104 76 0
-74 -43 -103 76 0
-74 -44 -103 76 0
-74 -43 -104 76 0
-74 -44 -104 75 0
-103 -73 -133 106 0
-103 -74 -133 106 0
-103 -73 -134 106 0
-103 -74 -134 106 0
-104 -73 -133 106 0
-104 -74 -133 106 0
-104 -73 -134 106 0
-104 -74 -134 105 0
-133 -103 -163 136 0
-133 -104 -163 136 0
-133 -103 -164 136 0
-133 -104 -164 136 0
-134 -103 -163 136 0
-134 -104 -163 136 0
-134 -103 -164 136 0
-134 -104 -164 135 0
-163 -133 -193 166 0
-163 -134 -193 166 0
-163 -133 -194 166 0
-163 -134 -194 166 0
-164 -133 -193 166 0
-164 -134 -193 166 0
-164 -133 -194 166 0
-164 -134 -194 165 0
-193 -163 -223 196 0
-193 -164 -223 196 0
-193 -163 -224 196 0
-193 -164 -224 196 0
-194 -163 -223 196 0
-194 -164 -223 196 0
-194 -163 -224 196 0
-194 -164 -224 195 0
-223 -193 -253 226 0
-223 -194 -253 226 0
-223 -193 -254 226 0
-223 -194 -254 226 0
-224 -193 -253 226 0
-224 -194 -253 226 0
-224 -193 -254 226 0
-224 -194 -254 225 0
-253 -223 -283 256 0
-253 -224 -283 256 0
-253 -223 -284 256 0
-253 -224 -284 256 0
-254 -223 -283 256 0
-254 -224 -283 256 0
-254 -223 -284 256 0
-254 -224 -284 255 0
-283 -13 -253 286 0
-283 -14 -253 286 0
-283 -13 -254 286 0
-283 -14 -254 286 0
-284 -13 -253 286 0
-284 -14 -253 286 0
-284 -13 -254 286 0
-284 -14 -254 285 0
-15 -45 -285 18 0
-15 -46 -285 18 0
-15 -45 -286 18 0
-15 -46 -286 18 0
-16 -45 -285 18 0
-16 -46 -285 18 0
-16 -45 -286 18 0
-16 -46 -286 17 0
-45 -15 -75 48 0
-45 -16 -75 48 0
-45 -15 -76 48 0
-45 -16 -76 48 0
-46 -15 -75 48 0
-46 -16 -75 48 0
-46 -15 -76 48 0
-46 -16 -76 47 0
-75 -45 -105 78 0
-75 -46 -105 78 0
-75 -45 -106 78 0
-75 -46 -106 78 0
-76 -45 -105 78 0
-76 -46 -105 78 0
-76 -45 -106 78 0
-76 -46 -106 77 0
-105 -75 -135 108 0
-105 -76 -135 108 0
-105 -75 -136 108 0
-105 -76 -136 108 0
-106 -75 -135 108 0
-106 -76 -135 108 0
-106 -75 -136 108 0
-106 -76 -136 107 0
-135 -105 -165 138 0
-135 -106 -165 138 0
-135 -105 -166 138 0
-135 -106 -166 138 0
-136 -105 -165 138 0
-136 -106 -165 138 0
-136 -105 -166 138 0
-136 -106 -166 137 0
-165 -135 -195 168 0
-165 -136 -195 168 0
-165 -135 -196 168 0
-165 -136 -196 168 0
-166 -135 -195 168 0
-166 -136 -195 168 0
-166 -135 -196 168 0
-166 -136 -196 167 0
-195 -165 -225 198 0
-195 -166 -225 198 0
-195 -165 -226 198 0
-195 -166 -226 198 0
-196 -165 -225 198 0
-196 -166 -225 198 0
-196 -165 -226 198 0
-196 -166 -226 197 0
-225 -195 -255 228 0
-225 -196 -255 228 0
-225 -195 -256 228 0
-225 -196 -256 228 0
-226 -195 -255 228 0
-226 -196 -255 228 0
-226 -195 -256 228 0
-226 -196 -256 227 0
-255 -225 -285 258 0
-255 -226 -285 258 0
-255 -225 -286 258 0
-255 -226 -286 258 0
-256 -225 -285 258 0
-256 -226 -285 258 0
-256 -225 -286 258 0
-256 -226 -286 257 0
-285 -15 -255 288 0
-285 -16 -255 288 0
-285 -15 -256 288 0
-285 -16 -256 288 0
-286 -15 -255 288 0
-286 -16 -255 288 0
-286 -15 -256 288 0
-286 -16 -256 287 0
-17 -47 -287 20 0
-17 -48 -287 20 0
-17 -47 -288 20 0
-17 -48 -288 20 0
-18 -47 -287 20 0
-18 -48 -287 20 0
-18 -47 -288 20 0
-18 -48 -288 19 0
-47 -17 -77 50 0
-47 -18 -77 50 0
-47 -17 -78 50 0
-47 -18 -78 50 0
-48 -17 -77 50 0
-48 -18 -77 50 0
-48 -17 -78 50 0
-48 -18 -78 49 0
-77 -47 -107 80 0
-77 -48 -107 80 0
-77 -47 -108 80 0
-77 -48 -108 80 0
-78 -47 -107 80 0
-78 -48 -107 80 0
-78 -47 -108 80 0
-78 -48 -108 79 0
-107 -77 -137 110 0
-107 -78 -137 110 0
-107 -77 -138 110 0
-107 -78 -138 110 0
-108 -77 -137 110 0
-108 -78 -137 110 0
-108 -77 -138 110 0
-108 -78 -138 109 0
-137 -107 -167 140 0
-137 -108 -167 140 0
-137 -107 -168 140 0
-137 -108 -168 140 0
-138 -107 -167 140 0
-138 -108 -167 140 0
-138 -107 -168 140 0
-138 -108 -168 139 0
-167 -137 -197 170 0
-167 -138 -197 170 0
-167 -137 -198 170 0
-167 -138 -198 170 0
-168 -137 -197 170 0
-168 -138 -197 170 0
-168 -137 -198 170 0
-168 -138 -198 169 0
-197 -167 -227 200 0
-197 -168 -227 200 0
-197 -167 -228 200 0
-197 -168 -228 200 0
-198 -167 -227 200 0
-198 -168 -227 200 0
-198 -167 -228 200 0
-198 -168 -228 199 0
-227 -197 -257 230 0
-227 -198 -257 230 0
-227 -197 -258 230 0
-227 -198 -258 230 0
-228 -197 -257 230 0
-228 -198 -257 230 0
-228 -197 -258 230 0
-228 -198 -258 229 0
-257 -227 -287 260 0
-257 -228 -287 260 0
-257 -227 -288 260 0
-257 -228 -288 260 0
-258 -227 -287 260 0
-258 -228 -287 260 0
-258 -227 -288 260 0
-258 -228 -288 259 0
-287 -17 -257 290 0
-287 -18 -257 290 0
-287 -17 -258 290 0
-287 -18 -258 290 0
-288 -17 -257 290 0
-288 -18 -257 290 0
-288 -17 -258 290 0
-288 -18 -258 289 0
-19 -49 -289 22 0
-19 -50 -289 22 0
-19 -49 -290 22 0
-19 -50 -290 22 0
-20 -49 -289 22 0
-20 -50 -289 22 0
-20 -49 -290 22 0
-20 -50 -290 21 0
-49 -19 -79 52 0
-49 -20 -79 52 0
-49 -19 -80 52 0
-49 -20 -80 52 0
-50 -19 -79 52 0
-50 -20 -79 52 0
-50 -19 -80 52 0
-50 -20 -80 51 0
-79 -49 -109 82 0
-79 -50 -109 82 0
-79 -49 -110 82 0
-79 -50 -110 82 0
-80 -49 -109 82 0
-80 -50 -109 82 0
-80 -49 -110 82 0
-80 -50 -110 81 0
-109 -79 -139 112 0
-109 -80 -139 112 0
-109 -79 -140 112 0
-109 -80 -140 112 0
-110 -79 -139 112 0
-110 -80 -139 112 0
-110 -79 -140 112 0
-110 -80 -140 111 0
-139 -109 -169 142 0
-139 -110 -169 142 0
-139 -109 -170 142 0
-139 -110 -170 142 0
-140 -109 -169 142 0
-140 -110 -169 142 0
-140 -109 -170 142 0
-140 -110 -170 141 0
-169 -139 -199 172 0
-169 -140 -199 172 0
-169 -139 -200 172 0
-169 -140 -200 172 0
-170 -139 -199 172 0
-170 -140 -199 172 0
-170 -139 -200 172 0
-170 -140 -200 171 0
-199 -169 -229 202 0
-199 -170 -229 202 0
-199 -169 -230 202 0
-199 -170 -230 202 0
-200 -169 -229 202 0
-200 -170 -229 202 0
-200 -169 -230 202 0
-200 -170 -230 201 0
-229 -199 -259 232 0
-229 -200 -259 232 0
-229 -199 -260 232 0
-229 -200 -260 232 0
-230 -199 -259 232 0
-230 -200 -259 232 0
-230 -199 -260 232 0
-230 -200 -260 231 0
-259 -229 -289 262 0
-259 -230 -289 262 0
-259 -229 -290 262 0
-259 -230 -290 262 0
-260 -229 -289 262 0
-260 -230 -289 262 0
-260 -229 -290 262 0
-260 -230 -290 261 0
-289 -19 -259 292 0
-289 -20 -259 292 0
-289 -19 -260 292 0
-289 -20 -260 292 0
-290 -19 -259 292 0
-290 -20 -259 292 0
-290 -19 -260 292 0
-290 -20 -260 291 0
-21 -51 -291 24 0
-21 -52 -291 24 0
-21 -51 -292 24 0
-21 -52 -292 24 0
-22 -51 -291 24 0
-22 -52 -291 24 0
-22 -51 -292 24 0
-22 -52 -292 23 0
-51 -21 -81 54 0
-51 -22 -81 54 0
-51 -21 -82 54 0
-51 -22 -82 54 0
-52 -21 -81 54 0
-52 -22 -81 54 0
-52 -21 -82 54 0
-52 -22 -82 53 0
-81 -51 -111 84 0
-81 -52 -111 84 0
-81 -51 -112 84 0
-81 -52 -112 84 0
-82 -51 -111 84 0
-82 -52 -111 84 0
-82 -51 -112 84 0
-82 -52 -112 83 0
-111 -81 -141 114 0
-111 -82 -141 114 0
-111 -81 -142 114 0
-111 -82 -142 114 0
-112 -81 -141 114 0
-112 -82 -141 114 0
-112 -81 -142 114 0
-112 -82 -142 113 0
-141 -111 -171 144 0
-141 -112 -171 144 0
-141 -111 -172 144 0
-141 -112 -172 144 0
-142 -111 -171 144 0
-142 -112 -171 144 0
-142 -111 -172 144 0
-142 -112 -172 143 0
-171 -141 -201 174 0
-171 -142 -201 174 0
-171 -141 -202 174 0
-171 -142 -202 174 0
-172 -141 -201 174 0
-172 -142 -201 174 0
-172 -141 -202 174 0
-172 -142 -202 173 0
-201 -171 -231 204 0
-201 -172 -231 204 0
-201 -171 -232 204 0
-201 -172 -232 204 0
-202 -171 -231 204 0
-202 -172 -231 204 0
-202 -171 -232 204 0
-202 -172 -232 203 0
-231 -201 -261 234 0
-231 -202 -261 234 0
-231 -201 -262 234 0
-231 -202 -262 234 0
-232 -201 -261 234 0
-232 -202 -261 234 0
-232 -201 -262 234 0
-232 -202 -262 233 0
-261 -231 -291 264 0
-261 -232 -291 264 0
-261 -231 -292 264 0
-261 -232 -292 264 0
-262 -231 -291 264 0
-262 -232 -291 264 0
-262 -231 -292 264 0
-262 -232 -292 263 0
-291 -21 -261 294 0
-291 -22 -261 294 0
-291 -21 -262 294 0
-291 -22 -262 294 0
-292 -21 -261 294 0
-292 -22 -261 294 0
-292 -21 -262 294 0
-292 -22 -262 293 0
-23 -53 -293 26 0
-23 -54 -293 26 0
-23 -53 -294 26 0
-23 -54 -294 26 0
-24 -53 -293 26 0
-24 -54 -293 26 0
-24 -53 -294 26 0
-24 -54 -294 25 0
-53 -23 -83 56 0
-53 -24 -83 56 0
-53 -23 -84 56 0
-53 -24 -84 56 0
-54 -23 -83 56 0
-54 -24 -83 56 0
-54 -23 -84 56 0
-54 -24 -84 55 0
-83 -53 -113 86 0
-83 -54 -113 86 0
-83 -53 -114 86 0
-83 -54 -114 86 0
-84 -53 -113 86 0
-84 -54 -113 86 0
-84 -53 -114 86 0
-84 -54 -114 85 0
-113 -83 -143 116 0
-113 -84 -143 116 0
-113 -83 -144 116 0
-113 -84 -144 116 0
-114 -83 -143 116 0
-114 -84 -143 116 0
-114 -83 -144 116 0
-114 -84 -144 115 0
-143 -113 -173 146 0
-143 -114 -173 146 0
-143 -113 -174 146 0
-143 -114 -174 146 0
-144 -113 -173 146 0
-144 -114 -173 146 0
-144 -113 -174 146 0
-144 -114 -174 145 0
-173 -143 -203 176 0
-173 -144 -203 176 0
-173 -143 -204 176 0
-173 -144 -204 176 0
-174 -143 -203 176 0
-174 -144 -203 176 0
-174 -143 -204 176 0
-174 -144 -204 175 0
-203 -173 -233 206 0
-203 -174 -233 206 0
-203 -173 -234 206 0
-203 -174 -234 206 0
-204 -173 -233 206 0
-204 -174 -233 206 0
-204 -173 -234 206 0
-204 -174 -234 205 0
-233 -203 -263 236 0
-233 -204 -263 236 0
-233 -203 -264 236 0
-233 -204 -264 236 0
-234 -203 -263 236 0
-234 -204 -263 236 0
-234 -203 -264 236 0
-234 -204 -264 235 0
-263 -233 -293 266 0
-263 -234 -293 266 0
-263 -233 -294 266 0
-263 -234 -294 266 0
-264 -233 -293 266 0
-264 -234 -293 266 0
-264 -233 -294 266 0
-264 -234 -294 265 0
-293 -23 -263 296 0
-293 -24 -263 296 0
-293 -23 -264 296 0
-293 -24 -264 296 0
-294 -23 -263 296 0
-294 -24 -263 296 0
-294 -23 -264 296 0
-294 -24 -264 295 0
-25 -55 -295 28 0
-25 -56 -295 28 0
-25 -55 -296 28 0
-25 -56 -296 28 0
-26 -55 -295 28 0
-26 -56 -295 28 0
-26 -55 -296 28 0
-26 -56 -296 27 0
-55 -25 -85 58 0
-55 -26 -85 58 0
-55 -25 -86 58 0
-55 -26 -86 58 0
-56 -25 -85 58 0
-56 -26 -85 58 0
-56 -25 -86 58 0
-56 -26 -86 57 0
-85 -55 -115 88 0
-85 -56 -115 88 0
-85 -55 -116 88 0
-85 -56 -116 88 0
-86 -55 -115 88 0
-86 -56 -115 88 0
-86 -55 -116 88 0
-86 -56 -116 87 0
-115 -85 -145 118 0
-115 -86 -145 118 0
-115 -85 -146 118 0
-115 -86 -146 118 0
-116 -85 -145 118 0
-116 -86 -145 118 0
-116 -85 -146 118 0
-116 -86 -146 117 0
-145 -115 -175 148 0
-145 -116 -175 148 0
-145 -115 -176 148 0
-145 -116 -176 148 0
-146 -115 -175 148 0
-146 -116 -175 148 0
-146 -115 -176 148 0
-146 -116 -176 147 0
-175 -145 -205 178 0
-175 -146 -205 178 0
-175 -145 -206 178 0
-175 -146 -206 178 0
-176 -145 -205 178 0
-176 -146 -205 178 0
-176 -145 -206 178 0
-176 -146 -206 177 0
-205 -175 -235 208 0
-205 -176 -235 208 0
-205 -175 -236 208 0
-205 -176 -236 208 0
-206 -175 -235 208 0
-206 -176 -235 208 0
-206 -175 -236 208 0
-206 -176 -236 207 0
-235 -205 -265 238 0
-235 -206 -265 238 0
-235 -205 -266 238 0
-235 -206 -266 238 0
-236 -205 -265 238 0
-236 -206 -265 238 0
-236 -205 -266 238 0
-236 -206 -266 237 0
-265 -235 -295 268 0
-265 -236 -295 268 0
-265 -235 -296 268 0
-265 -236 -296 268 0
-266 -235 -295 268 0
-266 -236 -295 268 0
-266 -235 -296 268 0
-266 -236 -296 267 0
-295 -25 -265 298 0
-295 -26 -265 298 0
-295 -25 -266 298 0
-295 -26 -266 298 0
-296 -25 -265 298 0
-296 -26 -265 298 0
-296 -25 -266 298 0
-296 -26 -266 297 0
-27 -57 -297 30 0
-27 -58 -297 30 0
-27 -57 -298 30 0
-27 -58 -298 30 0
-28 -57 -297 30 0
-28 -58 -297 30 0
-28 -57 -298 30 0
-28 -58 -298 29 0
-57 -27 -87 60 0
-57 -28 -87 60 0
-57 -27 -88 60 0
-57 -28 -88 60 0
-58 -27 -87 60 0
-58 -28 -87 60 0
-58 -27 -88 60 0
-58 -28 -88 59 0
-87 -57 -117 90 0
-87 -58 -117 90 0
-87 -57 -118 90 0
-87 -58 -118 90 0
-88 -57 -117 90 0
-88 -58 -117 90 0
-88 -57 -118 90 0
-88 -58 -118 89 0
-117 -87 -147 120 0
-117 -88 -147 120 0
-117 -87 -148 120 0
-117 -88 -148 120 0
-118 -87 -147 120 0
-118 -88 -147 120 0
-118 -87 -148 120 0
-118 -88 -148 119 0
-147 -117 -177 150 0
-147 -118 -177 150 0
-147 -117 -178 150 0
-147 -118 -178 150 0
-148 -117 -177 150 0
-148 -118 -177 150 0
-148 -117 -178 150 0
-148 -118 -178 149 0
-177 -147 -207 180 0
-177 -148 -207 180 0
-177 -147 -208 180 0
-177 -148 -208 180 0
-178 -147 -207 180 0
-178 -148 -207 180 0
-178 -147 -208 180 0
-178 -148 -208 179 0
-207 -177 -237 210 0
-207 -178 -237 210 0
-207 -177 -238 210 0
-207 -178 -238 210 0
-208 -177 -237 210 0
-208 -178 -237 210 0
-208 -177 -238 210 0
-208 -178 -238 209 0
-237 -207 -267 240 0
-237 -208 -267 240 0
-237 -207 -268 240 0
-237 -208 -268 240 0
-238 -207 -267 240 0
-238 -208 -267 240 0
-238 -207 -268 240 0
-238 -208 -268 239 0
-267 -237 -297 270 0
-267 -238 -297 270 0
-267 -237 -298 270 0
-267 -238 -298 270 0
-268 -237 -297 270 0
-268 -238 -297 270 0
-268 -237 -298 270 0
-268 -238 -298 269 0
-297 -27 -267 300 0
-297 -28 -267 300 0
-297 -27 -268 300 0
-297 -28 -268 300 0
-298 -27 -267 300 0
-298 -28 -267 300 0
-298 -27 -268 300 0
-298 -28 -268 299 0
-29 -59 -89 -119 -149 -179 -209 -239 -269 -299 0
-30 -60 -90 -120 -150 -180 -210 -240 -270 -300 0
-1 -31 -61 -91 -121 -151 -181 -211 -241 -271 0
-2 -32 -62 -92 -122 -152 -182 -212 -242 -272 0
-5 -35 -65 -95 -125 -155 -185 -215 -245 -275 0
-6 -36 -66 -96 -126 -156 -186 -216 -246 -276 0
-9 -39 -69 -99 -129 -159 -189 -219 -249 -279 0
-10 -40 -70 -100 -130 -160 -190 -220 -250 -280 0
-13 -43 -73 -103 -133 -163 -193 -223 -253 -283 0
-14 -44 -74 -104 -134 -164 -194 -224 -254 -284 0
-17 -47 -77 -107 -137 -167 -197 -227 -257 -287 0
-18 -48 -78 -108 -138 -168 -198 -228 -258 -288 0
-21 -51 -81 -111 -141 -171 -201 -231 -261 -291 0
-22 -52 -82 -112 -142 -172 -202 -232 -262 -292 0
-25 -55 -85 -115 -145 -175 -205 -235 -265 -295 0
-26 -56 -86 -116 -146 -176 -206 -236 -266 -296 0
